temp.lp
Minimize
 + xt_4 + yt_4 + xt_5 + yt_5 -  w_r_6 + xt_6 + yt_6 -  w_r_7 -  w_l_7 + xt_7 + yt_7 + xt_21 + yt_21 -  w_r_22 + xt_22 + yt_22 -  w_l_23 + xt_23 + yt_23 -  w_l_24 + xt_24 + yt_24 + xt_36 + yt_36 + xt_37 + yt_37 -  w_r_38 + xt_38 + yt_38 + xt_39 + yt_39 + xt_52 + yt_52 + xt_53 + yt_53 + xt_54 + yt_54 -  w_l_55 + xt_55 + yt_55 + xt_65 + yt_65 + xt_66 + yt_66 + xt_67 + yt_67 + xt_68 + yt_68 + xt_73 + yt_73 + xt_74 + yt_74 + xt_75 + yt_75 + xt_76 + yt_76 + xt_94 + yt_94 -  w_r_95 + xt_95 + yt_95 + xt_96 + yt_96 + xt_99 + yt_99 + xt_100 + yt_100 + xt_101 + yt_101 + xt_102 + yt_102 + xt_103 + yt_103 + xt_126 + yt_126 + xt_127 + yt_127 -  w_l_128 + xt_128 + yt_128 + xt_129 + yt_129 + xt_130 + yt_130 + xt_139 + yt_139 + xt_140 + yt_140 + xt_141 + yt_141 + xt_142 + yt_142 + xt_152 + yt_152 + xt_153 + yt_153 + xt_154 + yt_154 + xt_155 + yt_155 + xt_160 + yt_160 + xt_161 + yt_161 -  w_r_180 + xt_180 + yt_180 -  w_r_181 + xt_181 + yt_181 + xt_185 + yt_185 + xt_186 + yt_186 + xt_187 + yt_187 -  w_r_188 + xt_188 + yt_188 -  w_l_189 + xt_189 + yt_189 + xt_197 + yt_197 -  w_l_198 + xt_198 + yt_198 + xt_199 + yt_199 + xt_200 + yt_200 + xt_210 + yt_210 + xt_211 + yt_211 + xt_212 + yt_212 + xt_213 + yt_213 -  w_r_220 + xt_220 + yt_220 + xt_221 + yt_221 + xt_222 + yt_222 -  w_l_223 + xt_223 + yt_223 + xt_236 + yt_236 -  w_l_237 + xt_237 + yt_237 + xt_238 + yt_238 + xt_239 + yt_239 + xt_248 + yt_248 + xt_249 + yt_249 + xt_250 + yt_250 + xt_251 + yt_251 + xt_252 + yt_252 -  w_r_253 + xt_253 + yt_253 + xt_263 + yt_263 + xt_264 + yt_264 -  w_l_265 + xt_265 + yt_265 + xt_266 + yt_266 + xt_267 + yt_267 + xt_284 + yt_284 -  w_r_285 + xt_285 + yt_285 + xt_286 + yt_286 + xt_287 + yt_287 + xt_301 + yt_301 + xt_302 + yt_302 -  w_l_303 + xt_303 + yt_303 + xt_304 + yt_304 + xt_305 + yt_305 + xt_306 + yt_306 + xt_310 + yt_310 + xt_311 + yt_311 + xt_312 + yt_312 + xt_313 + yt_313 + xt_314 + yt_314 + xt_327 + yt_327 + xt_328 + yt_328 -  w_l_329 + xt_329 + yt_329 + xt_330 + yt_330 + xt_343 + yt_343 -  w_l_344 + xt_344 + yt_344 + xt_345 + yt_345 -  w_l_346 + xt_346 + yt_346 -  w_l_347 + xt_347 + yt_347 + xt_353 + yt_353 + xt_354 + yt_354 + xt_355 + yt_355 -  w_r_356 + xt_356 + yt_356 + xt_364 + yt_364 + xt_365 + yt_365 + xt_366 + yt_366 + xt_367 + yt_367 + xt_368 + yt_368

Subject To
1 y_4 + -1 x_4  >= -28.0386
x_4 - xt_4 <= 161.485
x_4 + xt_4 >= 161.485
y_4 - yt_4 <= 133.65
y_4 + yt_4 >= 133.65
1 y_6 + 1 x_6  + w_r_6 <= 308.201
x_6 - xt_6 <= 171.785
x_6 + xt_6 >= 171.785
y_6 - yt_6 <= 135.775
y_6 + yt_6 >= 135.775
1 y_7 + 1 x_7  + w_r_7 <= 312.651
1 y_7 + 1 x_7  - w_l_7 >= 311.806
x_7 - xt_7 <= 174.11
x_7 + xt_7 >= 174.11
y_7 - yt_7 <= 138.1
y_7 + yt_7 >= 138.1
1 y_21 + -1 x_21  >= -23.9386
1 y_21 + -1 x_21  >= -28.0386
1 y_21 + -1 x_21  >= -23.2886
x_21 - xt_21 <= 161.485
x_21 + xt_21 >= 161.485
y_21 - yt_21 <= 138.4
y_21 + yt_21 >= 138.4
1 y_22 + -0 x_22  + w_r_22 <= 138.546
1 y_22 + 0 x_22  + w_r_22 <= 138.52
x_22 - xt_22 <= 168.11
x_22 + xt_22 >= 168.11
y_22 - yt_22 <= 138.4
y_22 + yt_22 >= 138.4
1 y_23 + 1 x_23  - w_l_23 >= 312.469
x_23 - xt_23 <= 174.56
x_23 + xt_23 >= 174.56
y_23 - yt_23 <= 138.55
y_23 + yt_23 >= 138.55
1 y_24 + 1 x_24  - w_l_24 >= 313.369
1 y_24 + -1 x_24  <= -35.6564
x_24 - xt_24 <= 174.91
x_24 + xt_24 >= 174.91
y_24 - yt_24 <= 138.9
y_24 + yt_24 >= 138.9
1 y_36 + -1 x_36  >= -28.0386
x_36 - xt_36 <= 161.485
x_36 + xt_36 >= 161.485
y_36 - yt_36 <= 134.6
y_36 + yt_36 >= 134.6
1 y_38 + 0.999999 x_38  <= 304.151
1 y_38 + 1 x_38  + w_r_38 <= 308.101
x_38 - xt_38 <= 167.46
x_38 + xt_38 >= 167.46
y_38 - yt_38 <= 136.25
y_38 + yt_38 >= 136.25
1 y_52 + -1 x_52  >= -28.0386
x_52 - xt_52 <= 161.485
x_52 + xt_52 >= 161.485
y_52 - yt_52 <= 135.55
y_52 + yt_52 >= 135.55
1 y_54 + 1 x_54  <= 307.101
x_54 - xt_54 <= 169.885
x_54 + xt_54 >= 169.885
y_54 - yt_54 <= 136.525
y_54 + yt_54 >= 136.525
0 y_55 + 1 x_55  <= 172.305
1 y_55 + 0 x_55  - w_l_55 >= 137.38
x_55 - xt_55 <= 172.185
x_55 + xt_55 >= 172.185
y_55 - yt_55 <= 137.5
y_55 + yt_55 >= 137.5
1 y_73 + -1 x_73  >= -23.9386
1 y_73 + -1 x_73  >= -23.2886
x_73 - xt_73 <= 161.485
x_73 + xt_73 >= 161.485
y_73 - yt_73 <= 140.3
y_73 + yt_73 >= 140.3
1 y_75 + 1 x_75  >= 307.369
1 y_75 + 1 x_75  <= 311.401
x_75 - xt_75 <= 169.185
x_75 + xt_75 >= 169.185
y_75 - yt_75 <= 138.625
y_75 + yt_75 >= 138.625
1 y_76 + 1 x_76  <= 309.051
1 y_76 + 1 x_76  >= 307.356
1 y_76 + 1 x_76  >= 307.269
x_76 - xt_76 <= 172.185
x_76 + xt_76 >= 172.185
y_76 - yt_76 <= 135.625
y_76 + yt_76 >= 135.625
1 y_94 + -1 x_94  <= -23.8064
1 y_94 + -1 x_94  <= -21.9064
1 y_94 + -1 x_94  <= -22.8564
1 y_94 + -1 x_94  >= -28.4008
1 y_94 + -1 x_94  <= -24.4064
1 y_94 + -1 x_94  <= -24.3692
1 y_94 + -0 x_94  <= 138.42
x_94 - xt_94 <= 163.06
x_94 + xt_94 >= 163.06
y_94 - yt_94 <= 138.4
y_94 + yt_94 >= 138.4
1 y_95 + -1 x_95  <= -28.0814
1 y_95 + -0 x_95  + w_r_95 <= 140.346
x_95 - xt_95 <= 168.635
x_95 + xt_95 >= 168.635
y_95 - yt_95 <= 140.3
y_95 + yt_95 >= 140.3
1 y_96 + -0 x_96  <= 139.72
1 y_96 + 1 x_96  <= 313.701
x_96 - xt_96 <= 172.91
x_96 + xt_96 >= 172.91
y_96 - yt_96 <= 139.7
y_96 + yt_96 >= 139.7
1 y_102 + 1 x_102  >= 308.719
x_102 - xt_102 <= 169.91
x_102 + xt_102 >= 169.91
y_102 - yt_102 <= 139.5
y_102 + yt_102 >= 139.5
1 y_103 + -0 x_103  <= 136.62
1 y_103 + 1 x_103  >= 308.169
x_103 - xt_103 <= 172.91
x_103 + xt_103 >= 172.91
y_103 - yt_103 <= 136.5
y_103 + yt_103 >= 136.5
0 y_126 + 1 x_126  <= 156.203
x_126 - xt_126 <= 156.16
x_126 + xt_126 >= 156.16
y_126 - yt_126 <= 124
y_126 + yt_126 >= 124
1 y_127 + -1 x_127  >= -33.7136
x_127 - xt_127 <= 158.26
x_127 + xt_127 >= 158.26
y_127 - yt_127 <= 126.1
y_127 + yt_127 >= 126.1
1 y_128 + -1 x_128  - w_l_128 >= -38.5636
1 y_128 + -1 x_128  - w_l_128 >= -36.2136
x_128 - xt_128 <= 162.66
x_128 + xt_128 >= 162.66
y_128 - yt_128 <= 127.9
y_128 + yt_128 >= 127.9
1 y_129 + -1 x_129  >= -41.2008
1 y_129 + -1 x_129  >= -38.8508
x_129 - xt_129 <= 166.985
x_129 + xt_129 >= 166.985
y_129 - yt_129 <= 129.625
y_129 + yt_129 >= 129.625
1 y_141 + -1 x_141  <= -40.4064
1 y_141 + -1 x_141  <= -40.3692
1 y_141 + -1 x_141  <= -38.3064
1 y_141 + -1 x_141  <= -38.7692
x_141 - xt_141 <= 169.435
x_141 + xt_141 >= 169.435
y_141 - yt_141 <= 128.625
y_141 + yt_141 >= 128.625
0 y_142 + 1 x_142  <= 174.203
0 y_142 + 1 x_142  <= 174.18
1 y_142 + -1 x_142  >= -41.2508
x_142 - xt_142 <= 174.11
x_142 + xt_142 >= 174.11
y_142 - yt_142 <= 133.3
y_142 + yt_142 >= 133.3
1 y_155 + 0 x_155  <= 132.593
1 y_155 + 0 x_155  >= 132.38
1 y_155 + -0 x_155  <= 132.57
1 y_155 + -1 x_155  <= -41.9692
x_155 - xt_155 <= 174.91
x_155 + xt_155 >= 174.91
y_155 - yt_155 <= 132.5
y_155 + yt_155 >= 132.5
0 y_161 + 1 x_161  <= 174.405
x_161 - xt_161 <= 174.335
x_161 + xt_161 >= 174.335
y_161 - yt_161 <= 139.1
y_161 + yt_161 >= 139.1
1 y_180 + 0 x_180  + w_r_180 <= 127.97
1 y_180 + -0 x_180  + w_r_180 <= 127.996
1 y_180 + 0 x_180  + w_r_180 <= 127.97
x_180 - xt_180 <= 166.56
x_180 + xt_180 >= 166.56
y_180 - yt_180 <= 127.95
y_180 + yt_180 >= 127.95
1 y_181 + 1 x_181  + w_r_181 <= 301.901
1 y_181 + -1 x_181  <= -41.9692
x_181 - xt_181 <= 172.735
x_181 + xt_181 >= 172.735
y_181 - yt_181 <= 128.725
y_181 + yt_181 >= 128.725
1 y_187 + -1 x_187  <= -37.7564
1 y_187 + -0.999999 x_187  <= -37.7191
1 y_187 + -1 x_187  <= -39.5692
x_187 - xt_187 <= 167.71
x_187 + xt_187 >= 167.71
y_187 - yt_187 <= 126.15
y_187 + yt_187 >= 126.15
1 y_188 + -1 x_188  >= -41.8386
0 y_188 + 1 x_188  + w_r_188 <= 170.806
1 y_188 + 1 x_188  <= 300.089
x_188 - xt_188 <= 170.66
x_188 + xt_188 >= 170.66
y_188 - yt_188 <= 129.125
y_188 + yt_188 >= 129.125
1 y_189 + -1 x_189  - w_l_189 >= -41.5508
0 y_189 + 1 x_189  <= 170.605
1 y_189 + 1 x_189  <= 300.151
x_189 - xt_189 <= 170.485
x_189 + xt_189 >= 170.485
y_189 - yt_189 <= 129.325
y_189 + yt_189 >= 129.325
1 y_198 + -1 x_198  - w_l_198 >= -38.2886
x_198 - xt_198 <= 163.935
x_198 + xt_198 >= 163.935
y_198 - yt_198 <= 126.05
y_198 + yt_198 >= 126.05
1 y_200 + -1 x_200  >= -40.4508
x_200 - xt_200 <= 167.585
x_200 + xt_200 >= 167.585
y_200 - yt_200 <= 127.575
y_200 + yt_200 >= 127.575
1 y_210 + -1 x_210  >= -34.6636
1 y_210 + -1 x_210  <= -33.4692
x_210 - xt_210 <= 158.31
x_210 + xt_210 >= 158.31
y_210 - yt_210 <= 124.2
y_210 + yt_210 >= 124.2
1 y_211 + -1 x_211  <= -35.1064
x_211 - xt_211 <= 161.36
x_211 + xt_211 >= 161.36
y_211 - yt_211 <= 124.7
y_211 + yt_211 >= 124.7
1 y_212 + -1 x_212  <= -37.7564
1 y_212 + -0.999999 x_212  <= -37.7191
1 y_212 + -1 x_212  >= -41.2008
x_212 - xt_212 <= 166.91
x_212 + xt_212 >= 166.91
y_212 - yt_212 <= 127.7
y_212 + yt_212 >= 127.7
1 y_213 + 0 x_213  <= 130.593
x_213 - xt_213 <= 170.11
x_213 + xt_213 >= 170.11
y_213 - yt_213 <= 130.5
y_213 + yt_213 >= 130.5
1 y_220 + -1 x_220  + w_r_220 <= -34.8064
x_220 - xt_220 <= 159.06
x_220 + xt_220 >= 159.06
y_220 - yt_220 <= 123.7
y_220 + yt_220 >= 123.7
1 y_222 + -1 x_222  <= -37.9692
x_222 - xt_222 <= 170.81
x_222 + xt_222 >= 170.81
y_222 - yt_222 <= 126.8
y_222 + yt_222 >= 126.8
1 y_223 + 1 x_223  - w_l_223 >= 303.769
1 y_223 + -1 x_223  <= -41.9692
x_223 - xt_223 <= 174.11
x_223 + xt_223 >= 174.11
y_223 - yt_223 <= 130.1
y_223 + yt_223 >= 130.1
1 y_237 + -1 x_237  - w_l_237 >= -36.4886
x_237 - xt_237 <= 165.735
x_237 + xt_237 >= 165.735
y_237 - yt_237 <= 131.75
y_237 + yt_237 >= 131.75
1 y_238 + -1 x_238  >= -40.2008
x_238 - xt_238 <= 169.785
x_238 + xt_238 >= 169.785
y_238 - yt_238 <= 131.625
y_238 + yt_238 >= 131.625
1 y_239 + 1 x_239  >= 300.969
1 y_239 + 0 x_239  <= 131.393
x_239 - xt_239 <= 170.11
x_239 + xt_239 >= 170.11
y_239 - yt_239 <= 131.3
y_239 + yt_239 >= 131.3
1 y_248 + -1 x_248  >= -23.9386
1 y_248 + -1 x_248  >= -23.2886
x_248 - xt_248 <= 161.485
x_248 + xt_248 >= 161.485
y_248 - yt_248 <= 139.35
y_248 + yt_248 >= 139.35
1 y_252 + 1 x_252  <= 307.389
x_252 - xt_252 <= 170.66
x_252 + xt_252 >= 170.66
y_252 - yt_252 <= 136.275
y_252 + yt_252 >= 136.275
1 y_253 + 1 x_253  + w_r_253 <= 307.101
x_253 - xt_253 <= 170.485
x_253 + xt_253 >= 170.485
y_253 - yt_253 <= 136.075
y_253 + yt_253 >= 136.075
1 y_264 + -1 x_264  <= -28.5564
1 y_264 + -1 x_264  <= -23.8064
1 y_264 + -1 x_264  <= -27.6064
1 y_264 + -1 x_264  <= -26.6564
1 y_264 + -1 x_264  <= -25.0192
1 y_264 + -1 x_264  <= -24.4064
1 y_264 + -1 x_264  <= -24.3692
x_264 - xt_264 <= 164.51
x_264 + xt_264 >= 164.51
y_264 - yt_264 <= 135.75
y_264 + yt_264 >= 135.75
1 y_265 + 0 x_265  - w_l_265 >= 138.654
x_265 - xt_265 <= 169.06
x_265 + xt_265 >= 169.06
y_265 - yt_265 <= 138.8
y_265 + yt_265 >= 138.8
1 y_266 + 0 x_266  >= 138.83
x_266 - xt_266 <= 170.71
x_266 + xt_266 >= 170.71
y_266 - yt_266 <= 138.95
y_266 + yt_266 >= 138.95
1 y_285 + -1 x_285  + w_r_285 <= -34.9064
x_285 - xt_285 <= 163.21
x_285 + xt_285 >= 163.21
y_285 - yt_285 <= 127
y_285 + yt_285 >= 127
1 y_286 + -1 x_286  >= -43.6508
1 y_286 + -1 x_286  <= -33.4692
1 y_286 + -0 x_286  <= 129.77
x_286 - xt_286 <= 167.26
x_286 + xt_286 >= 167.26
y_286 - yt_286 <= 129.65
y_286 + yt_286 >= 129.65
1 y_287 + 1 x_287  >= 301.769
1 y_287 + 1 x_287  <= 302.614
x_287 - xt_287 <= 170.11
x_287 + xt_287 >= 170.11
y_287 - yt_287 <= 132.1
y_287 + yt_287 >= 132.1
1 y_301 + -1 x_301  >= -24.1136
1 y_301 + -1 x_301  >= -28.2136
x_301 - xt_301 <= 161.31
x_301 + xt_301 >= 161.31
y_301 - yt_301 <= 137.45
y_301 + yt_301 >= 137.45
1 y_302 + -1 x_302  <= -23.8064
1 y_302 + -1 x_302  <= -21.9064
1 y_302 + -1 x_302  >= -24.3008
0 y_302 + 1 x_302  <= 163.105
1 y_302 + -1 x_302  <= -22.8564
1 y_302 + -1 x_302  >= -28.4008
x_302 - xt_302 <= 163.035
x_302 + xt_302 >= 163.035
y_302 - yt_302 <= 139.025
y_302 + yt_302 >= 139.025
1 y_303 + -0 x_303  - w_l_303 >= 140.58
1 y_303 + 0 x_303  - w_l_303 >= 140.554
1 y_303 + 0 x_303  - w_l_303 >= 140.58
x_303 - xt_303 <= 169.035
x_303 + xt_303 >= 169.035
y_303 - yt_303 <= 140.6
y_303 + yt_303 >= 140.6
1 y_304 + 1 x_304  >= 312.969
x_304 - xt_304 <= 173.735
x_304 + xt_304 >= 173.735
y_304 - yt_304 <= 140.325
y_304 + yt_304 >= 140.325
1 y_312 + 1 x_312  >= 307.369
1 y_312 + 0.999999 x_312  >= 308.169
x_312 - xt_312 <= 171.61
x_312 + xt_312 >= 171.61
y_312 - yt_312 <= 140.15
y_312 + yt_312 >= 140.15
1 y_327 + -1 x_327  <= -32.5192
1 y_327 + -1 x_327  >= -33.7508
x_327 - xt_327 <= 157.31
x_327 + xt_327 >= 157.31
y_327 - yt_327 <= 124.2
y_327 + yt_327 >= 124.2
1 y_328 + -1 x_328  >= -34.4136
1 y_328 + -1 x_328  >= -37.2508
x_328 - xt_328 <= 161.81
x_328 + xt_328 >= 161.81
y_328 - yt_328 <= 128.7
y_328 + yt_328 >= 128.7
1 y_329 + -0 x_329  - w_l_329 >= 132.58
x_329 - xt_329 <= 168.335
x_329 + xt_329 >= 168.335
y_329 - yt_329 <= 132.7
y_329 + yt_329 >= 132.7
1 y_330 + 1 x_330  >= 302.881
x_330 - xt_330 <= 170.585
x_330 + xt_330 >= 170.585
y_330 - yt_330 <= 132.7
y_330 + yt_330 >= 132.7
1 y_343 + 0 x_343  >= 128.555
x_343 - xt_343 <= 161.485
x_343 + xt_343 >= 161.485
y_343 - yt_343 <= 128.575
y_343 + yt_343 >= 128.575
1 y_344 + 0 x_344  - w_l_344 >= 128.204
x_344 - xt_344 <= 166.16
x_344 + xt_344 >= 166.16
y_344 - yt_344 <= 128.25
y_344 + yt_344 >= 128.25
1 y_345 + 0 x_345  >= 128.505
1 y_345 + -0 x_345  <= 128.545
1 y_345 + 0 x_345  <= 128.568
x_345 - xt_345 <= 170.785
x_345 + xt_345 >= 170.785
y_345 - yt_345 <= 128.525
y_345 + yt_345 >= 128.525
0 y_346 + 1 x_346  - w_l_346 >= 170.914
0 y_346 + 1 x_346  - w_l_346 >= 170.94
x_346 - xt_346 <= 171.06
x_346 + xt_346 >= 171.06
y_346 - yt_346 <= 129.125
y_346 + yt_346 >= 129.125
1 y_347 + -1 x_347  >= -43.6508
1 y_347 + 1 x_347  - w_l_347 >= 302.656
1 y_347 + 1 x_347  - w_l_347 >= 302.619
0 y_347 + 1 x_347  <= 172.378
x_347 - xt_347 <= 172.285
x_347 + xt_347 >= 172.285
y_347 - yt_347 <= 130.675
y_347 + yt_347 >= 130.675
1 y_356 + 0 x_356  + w_r_356 <= 132.02
x_356 - xt_356 <= 174.66
x_356 + xt_356 >= 174.66
y_356 - yt_356 <= 131.9
y_356 + yt_356 >= 131.9
1 y_367 + -1 x_367  <= -41.2314
1 y_367 + -1 x_367  >= -41.9886
x_367 - xt_367 <= 174.66
x_367 + xt_367 >= 174.66
y_367 - yt_367 <= 133.075
y_367 + yt_367 >= 133.075
1 y_368 + -1 x_368  <= -41.1692
1 y_368 + -1 x_368  >= -42.0508
x_368 - xt_368 <= 174.485
x_368 + xt_368 >= 174.485
y_368 - yt_368 <= 132.875
y_368 + yt_368 >= 132.875
18.3279 - 1 - 1 - 1 - 7.874 w_r_6 - 1 - 7.874 w_r_7 - 7.874 w_l_7 >= 0
18.3279 - 1 - 1 - 7.874 w_r_22 - 1 - 7.874 w_l_23 - 1 - 7.874 w_l_24 >= 0
18.3279 - 1 - 1 - 1 - 7.874 w_r_38 - 1 >= 0
18.3279 - 1 - 1 - 1 - 1 - 7.874 w_l_55 >= 0
18.3279 - 1 - 1 - 1 - 1 >= 0
18.3279 - 1 - 1 - 1 - 1 >= 0
18.3279 - 1 - 1 - 7.874 w_r_95 - 1 >= 0
18.3279 - 1 - 1 - 1 - 1 - 1 >= 0
18.3279 - 1 - 1 - 1 - 7.874 w_l_128 - 1 - 1 >= 0
18.3279 - 1 - 1 - 1 - 1 >= 0
18.3279 - 1 - 1 - 1 - 1 >= 0
18.3279 - 1 - 1 >= 0
18.3279 - 1 - 7.874 w_r_180 - 1 - 7.874 w_r_181 >= 0
18.3279 - 1 - 1 - 1 - 1 - 7.874 w_r_188 - 1 - 7.874 w_l_189 >= 0
18.3279 - 1 - 1 - 7.874 w_l_198 - 1 - 1 >= 0
18.3279 - 1 - 1 - 1 - 1 >= 0
18.3279 - 1 - 7.874 w_r_220 - 1 - 1 - 1 - 7.874 w_l_223 >= 0
18.3279 - 1 - 1 - 7.874 w_l_237 - 1 - 1 >= 0
18.3279 - 1 - 1 - 1 - 1 - 1 - 1 - 7.874 w_r_253 >= 0
18.3279 - 1 - 1 - 1 - 7.874 w_l_265 - 1 - 1 >= 0
18.3279 - 1 - 1 - 7.874 w_r_285 - 1 - 1 >= 0
18.3279 - 1 - 1 - 1 - 7.874 w_l_303 - 1 - 1 - 1 >= 0
18.3279 - 1 - 1 - 1 - 1 - 1 >= 0
18.3279 - 1 - 1 - 1 - 7.874 w_l_329 - 1 >= 0
18.3279 - 1 - 1 - 7.874 w_l_344 - 1 - 1 - 7.874 w_l_346 - 1 - 7.874 w_l_347 >= 0
18.3279 - 1 - 1 - 1 - 1 - 7.874 w_r_356 >= 0
18.3279 - 1 - 1 - 1 - 1 - 1 >= 0

Bounds
x_4 >= 0
xt_4 <= 3
y_4 >= 0
yt_4 <= 3
x_5 >= 0
xt_5 <= 3
y_5 >= 0
yt_5 <= 3
x_6 >= 0
xt_6 <= 3
y_6 >= 0
yt_6 <= 3
w_r_6 >= 0
w_r_6 <= 10
x_7 >= 0
xt_7 <= 3
y_7 >= 0
yt_7 <= 3
w_r_7 >= 0
w_r_7 <= 10
w_l_7 >= 0
w_l_7 <= 10
x_21 >= 0
xt_21 <= 3
y_21 >= 0
yt_21 <= 3
x_22 >= 0
xt_22 <= 3
y_22 >= 0
yt_22 <= 3
w_r_22 >= 0
w_r_22 <= 10
w_r_22 >= 0
w_r_22 <= 10
x_23 >= 0
xt_23 <= 3
y_23 >= 0
yt_23 <= 3
w_l_23 >= 0
w_l_23 <= 10
x_24 >= 0
xt_24 <= 3
y_24 >= 0
yt_24 <= 3
w_l_24 >= 0
w_l_24 <= 10
x_36 >= 0
xt_36 <= 3
y_36 >= 0
yt_36 <= 3
x_37 >= 0
xt_37 <= 3
y_37 >= 0
yt_37 <= 3
x_38 >= 0
xt_38 <= 3
y_38 >= 0
yt_38 <= 3
w_r_38 >= 0
w_r_38 <= 10
x_39 >= 0
xt_39 <= 3
y_39 >= 0
yt_39 <= 3
x_52 >= 0
xt_52 <= 3
y_52 >= 0
yt_52 <= 3
x_53 >= 0
xt_53 <= 3
y_53 >= 0
yt_53 <= 3
x_54 >= 0
xt_54 <= 3
y_54 >= 0
yt_54 <= 3
x_55 >= 0
xt_55 <= 3
y_55 >= 0
yt_55 <= 3
w_l_55 >= 0
w_l_55 <= 10
x_65 >= 0
xt_65 <= 3
y_65 >= 0
yt_65 <= 3
x_66 >= 0
xt_66 <= 3
y_66 >= 0
yt_66 <= 3
x_67 >= 0
xt_67 <= 3
y_67 >= 0
yt_67 <= 3
x_68 >= 0
xt_68 <= 3
y_68 >= 0
yt_68 <= 3
x_73 >= 0
xt_73 <= 3
y_73 >= 0
yt_73 <= 3
x_74 >= 0
xt_74 <= 3
y_74 >= 0
yt_74 <= 3
x_75 >= 0
xt_75 <= 3
y_75 >= 0
yt_75 <= 3
x_76 >= 0
xt_76 <= 3
y_76 >= 0
yt_76 <= 3
x_94 >= 0
xt_94 <= 3
y_94 >= 0
yt_94 <= 3
x_95 >= 0
xt_95 <= 3
y_95 >= 0
yt_95 <= 3
w_r_95 >= 0
w_r_95 <= 10
x_96 >= 0
xt_96 <= 3
y_96 >= 0
yt_96 <= 3
x_99 >= 0
xt_99 <= 3
y_99 >= 0
yt_99 <= 3
x_100 >= 0
xt_100 <= 3
y_100 >= 0
yt_100 <= 3
x_101 >= 0
xt_101 <= 3
y_101 >= 0
yt_101 <= 3
x_102 >= 0
xt_102 <= 3
y_102 >= 0
yt_102 <= 3
x_103 >= 0
xt_103 <= 3
y_103 >= 0
yt_103 <= 3
x_126 >= 0
xt_126 <= 3
y_126 >= 0
yt_126 <= 3
x_127 >= 0
xt_127 <= 3
y_127 >= 0
yt_127 <= 3
x_128 >= 0
xt_128 <= 3
y_128 >= 0
yt_128 <= 3
w_l_128 >= 0
w_l_128 <= 10
w_l_128 >= 0
w_l_128 <= 10
x_129 >= 0
xt_129 <= 3
y_129 >= 0
yt_129 <= 3
x_130 >= 0
xt_130 <= 3
y_130 >= 0
yt_130 <= 3
x_139 >= 0
xt_139 <= 3
y_139 >= 0
yt_139 <= 3
x_140 >= 0
xt_140 <= 3
y_140 >= 0
yt_140 <= 3
x_141 >= 0
xt_141 <= 3
y_141 >= 0
yt_141 <= 3
x_142 >= 0
xt_142 <= 3
y_142 >= 0
yt_142 <= 3
x_152 >= 0
xt_152 <= 3
y_152 >= 0
yt_152 <= 3
x_153 >= 0
xt_153 <= 3
y_153 >= 0
yt_153 <= 3
x_154 >= 0
xt_154 <= 3
y_154 >= 0
yt_154 <= 3
x_155 >= 0
xt_155 <= 3
y_155 >= 0
yt_155 <= 3
x_160 >= 0
xt_160 <= 3
y_160 >= 0
yt_160 <= 3
x_161 >= 0
xt_161 <= 3
y_161 >= 0
yt_161 <= 3
x_180 >= 0
xt_180 <= 3
y_180 >= 0
yt_180 <= 3
w_r_180 >= 0
w_r_180 <= 10
w_r_180 >= 0
w_r_180 <= 10
w_r_180 >= 0
w_r_180 <= 10
x_181 >= 0
xt_181 <= 3
y_181 >= 0
yt_181 <= 3
w_r_181 >= 0
w_r_181 <= 10
x_185 >= 0
xt_185 <= 3
y_185 >= 0
yt_185 <= 3
x_186 >= 0
xt_186 <= 3
y_186 >= 0
yt_186 <= 3
x_187 >= 0
xt_187 <= 3
y_187 >= 0
yt_187 <= 3
x_188 >= 0
xt_188 <= 3
y_188 >= 0
yt_188 <= 3
w_r_188 >= 0
w_r_188 <= 10
x_189 >= 0
xt_189 <= 3
y_189 >= 0
yt_189 <= 3
w_l_189 >= 0
w_l_189 <= 10
x_197 >= 0
xt_197 <= 3
y_197 >= 0
yt_197 <= 3
x_198 >= 0
xt_198 <= 3
y_198 >= 0
yt_198 <= 3
w_l_198 >= 0
w_l_198 <= 10
x_199 >= 0
xt_199 <= 3
y_199 >= 0
yt_199 <= 3
x_200 >= 0
xt_200 <= 3
y_200 >= 0
yt_200 <= 3
x_210 >= 0
xt_210 <= 3
y_210 >= 0
yt_210 <= 3
x_211 >= 0
xt_211 <= 3
y_211 >= 0
yt_211 <= 3
x_212 >= 0
xt_212 <= 3
y_212 >= 0
yt_212 <= 3
x_213 >= 0
xt_213 <= 3
y_213 >= 0
yt_213 <= 3
x_220 >= 0
xt_220 <= 3
y_220 >= 0
yt_220 <= 3
w_r_220 >= 0
w_r_220 <= 10
x_221 >= 0
xt_221 <= 3
y_221 >= 0
yt_221 <= 3
x_222 >= 0
xt_222 <= 3
y_222 >= 0
yt_222 <= 3
x_223 >= 0
xt_223 <= 3
y_223 >= 0
yt_223 <= 3
w_l_223 >= 0
w_l_223 <= 10
x_236 >= 0
xt_236 <= 3
y_236 >= 0
yt_236 <= 3
x_237 >= 0
xt_237 <= 3
y_237 >= 0
yt_237 <= 3
w_l_237 >= 0
w_l_237 <= 10
x_238 >= 0
xt_238 <= 3
y_238 >= 0
yt_238 <= 3
x_239 >= 0
xt_239 <= 3
y_239 >= 0
yt_239 <= 3
x_248 >= 0
xt_248 <= 3
y_248 >= 0
yt_248 <= 3
x_249 >= 0
xt_249 <= 3
y_249 >= 0
yt_249 <= 3
x_250 >= 0
xt_250 <= 3
y_250 >= 0
yt_250 <= 3
x_251 >= 0
xt_251 <= 3
y_251 >= 0
yt_251 <= 3
x_252 >= 0
xt_252 <= 3
y_252 >= 0
yt_252 <= 3
x_253 >= 0
xt_253 <= 3
y_253 >= 0
yt_253 <= 3
w_r_253 >= 0
w_r_253 <= 10
x_263 >= 0
xt_263 <= 3
y_263 >= 0
yt_263 <= 3
x_264 >= 0
xt_264 <= 3
y_264 >= 0
yt_264 <= 3
x_265 >= 0
xt_265 <= 3
y_265 >= 0
yt_265 <= 3
w_l_265 >= 0
w_l_265 <= 10
x_266 >= 0
xt_266 <= 3
y_266 >= 0
yt_266 <= 3
x_267 >= 0
xt_267 <= 3
y_267 >= 0
yt_267 <= 3
x_284 >= 0
xt_284 <= 3
y_284 >= 0
yt_284 <= 3
x_285 >= 0
xt_285 <= 3
y_285 >= 0
yt_285 <= 3
w_r_285 >= 0
w_r_285 <= 10
x_286 >= 0
xt_286 <= 3
y_286 >= 0
yt_286 <= 3
x_287 >= 0
xt_287 <= 3
y_287 >= 0
yt_287 <= 3
x_301 >= 0
xt_301 <= 3
y_301 >= 0
yt_301 <= 3
x_302 >= 0
xt_302 <= 3
y_302 >= 0
yt_302 <= 3
x_303 >= 0
xt_303 <= 3
y_303 >= 0
yt_303 <= 3
w_l_303 >= 0
w_l_303 <= 10
w_l_303 >= 0
w_l_303 <= 10
w_l_303 >= 0
w_l_303 <= 10
x_304 >= 0
xt_304 <= 3
y_304 >= 0
yt_304 <= 3
x_305 >= 0
xt_305 <= 3
y_305 >= 0
yt_305 <= 3
x_306 >= 0
xt_306 <= 3
y_306 >= 0
yt_306 <= 3
x_310 >= 0
xt_310 <= 3
y_310 >= 0
yt_310 <= 3
x_311 >= 0
xt_311 <= 3
y_311 >= 0
yt_311 <= 3
x_312 >= 0
xt_312 <= 3
y_312 >= 0
yt_312 <= 3
x_313 >= 0
xt_313 <= 3
y_313 >= 0
yt_313 <= 3
x_314 >= 0
xt_314 <= 3
y_314 >= 0
yt_314 <= 3
x_327 >= 0
xt_327 <= 3
y_327 >= 0
yt_327 <= 3
x_328 >= 0
xt_328 <= 3
y_328 >= 0
yt_328 <= 3
x_329 >= 0
xt_329 <= 3
y_329 >= 0
yt_329 <= 3
w_l_329 >= 0
w_l_329 <= 10
x_330 >= 0
xt_330 <= 3
y_330 >= 0
yt_330 <= 3
x_343 >= 0
xt_343 <= 3
y_343 >= 0
yt_343 <= 3
x_344 >= 0
xt_344 <= 3
y_344 >= 0
yt_344 <= 3
w_l_344 >= 0
w_l_344 <= 10
x_345 >= 0
xt_345 <= 3
y_345 >= 0
yt_345 <= 3
x_346 >= 0
xt_346 <= 3
y_346 >= 0
yt_346 <= 3
w_l_346 >= 0
w_l_346 <= 10
w_l_346 >= 0
w_l_346 <= 10
x_347 >= 0
xt_347 <= 3
y_347 >= 0
yt_347 <= 3
w_l_347 >= 0
w_l_347 <= 10
w_l_347 >= 0
w_l_347 <= 10
x_353 >= 0
xt_353 <= 3
y_353 >= 0
yt_353 <= 3
x_354 >= 0
xt_354 <= 3
y_354 >= 0
yt_354 <= 3
x_355 >= 0
xt_355 <= 3
y_355 >= 0
yt_355 <= 3
x_356 >= 0
xt_356 <= 3
y_356 >= 0
yt_356 <= 3
w_r_356 >= 0
w_r_356 <= 10
x_364 >= 0
xt_364 <= 3
y_364 >= 0
yt_364 <= 3
x_365 >= 0
xt_365 <= 3
y_365 >= 0
yt_365 <= 3
x_366 >= 0
xt_366 <= 3
y_366 >= 0
yt_366 <= 3
x_367 >= 0
xt_367 <= 3
y_367 >= 0
yt_367 <= 3
x_368 >= 0
xt_368 <= 3
y_368 >= 0
yt_368 <= 3
End
