temp.lp.sol
xt_0 0
yt_0 0
xt_1 0
yt_1 0
xt_2 0
yt_2 0
w_l_5 0.046
xt_5 0
yt_5 0
xt_6 0
yt_6 0
xt_7 0
yt_7 0
xt_8 0
yt_8 0
xt_9 0
yt_9 0
xt_10 0
yt_10 0
y_5 138.05
x_5 127.685
y_6 136.475
x_6 121.685
14.7447 0.362204
1 0
x_0 0
y_0 0
x_1 0
y_1 0
x_2 0
y_2 0
x_7 0
y_7 0
x_8 0
y_8 0
x_9 0
y_9 0
x_10 0
y_10 0
